cases/matpower/frankenstein_00.m
ipopt
QCRM
[warn | PowerModels]: angmin and angmax values are 0, widening these values on branch 1 to +/- 60.0 deg.
[warn | PowerModels]: angmin and angmax values are 0, widening these values on branch 2 to +/- 60.0 deg.
[warn | PowerModels]: angmin and angmax values are 0, widening these values on branch 3 to +/- 60.0 deg.
[warn | PowerModels]: no active generators found at bus 1008, updating to bus type from 2 to 1
[warn | PowerModels]: the voltage setpoint on generator 1 does not match the value at bus 1002
[warn | PowerModels]: the voltage setpoint on generator 2 does not match the value at bus 1005
[info | PowerModels]: removing 2 cost terms from generator 1: [100.0, 0.0]
[info | PowerModels]: removing 2 cost terms from generator 2: [100.0, 0.0]
[info | PowerModels]: removing 2 cost terms from generator 3: [100.0, 0.0]

******************************************************************************
This program contains Ipopt, a library for large-scale nonlinear optimization.
 Ipopt is released as open source code under the Eclipse Public License (EPL).
         For more information visit http://projects.coin-or.org/Ipopt
******************************************************************************

This is Ipopt version 3.13.2, running with linear solver mumps.
NOTE: Other linear solvers might be more efficient (see Ipopt documentation).

Number of nonzeros in equality constraint Jacobian...:       90
Number of nonzeros in inequality constraint Jacobian.:      199
Number of nonzeros in Lagrangian Hessian.............:       28

Total number of variables............................:       50
                     variables with only lower bounds:        0
                variables with lower and upper bounds:       46
                     variables with only upper bounds:        0
Total number of equality constraints.................:       27
Total number of inequality constraints...............:       77
        inequality constraints with only lower bounds:       37
   inequality constraints with lower and upper bounds:        0
        inequality constraints with only upper bounds:       40

iter    objective    inf_pr   inf_du lg(mu)  ||d||  lg(rg) alpha_du alpha_pr  ls
   0  1.6114999e+01 9.04e+01 8.80e-01  -1.0 0.00e+00    -  0.00e+00 0.00e+00   0
   1  1.8210959e+01 7.62e+01 9.09e+00  -1.0 9.57e-01    -  7.37e-01 1.57e-01h  1
   2  2.7018287e+01 1.72e+01 9.83e+00  -1.0 8.90e-01    -  3.48e-01 7.75e-01h  1
   3  2.8151711e+01 9.98e+00 1.20e+01  -1.0 4.85e-01    -  7.16e-01 4.19e-01h  1
   4  2.9910668e+01 9.09e-12 2.93e+00  -1.0 1.23e+00    -  9.28e-01 1.00e+00h  1
   5  3.0088774e+01 9.42e-12 4.53e+00  -1.0 2.19e+00    -  8.55e-01 1.00e+00f  1
   6  3.0109064e+01 8.31e-12 1.16e-02  -1.0 3.48e-01    -  1.00e+00 1.00e+00h  1
   7  2.9592374e+01 1.86e-12 4.66e+01  -2.5 4.16e+00    -  5.98e-01 9.77e-01f  1
   8  2.9438163e+01 1.92e-03 3.06e+00  -2.5 4.14e-01    -  9.20e-01 7.15e-01f  1
   9  2.9436808e+01 5.68e-12 2.01e-02  -2.5 6.18e-02    -  1.00e+00 1.00e+00h  1
iter    objective    inf_pr   inf_du lg(mu)  ||d||  lg(rg) alpha_du alpha_pr  ls
  10  2.9420164e+01 5.25e-05 4.26e-01  -3.8 1.14e-01    -  1.00e+00 8.75e-01h  1
  11  2.9419061e+01 1.85e-11 7.18e-03  -3.8 4.03e-02    -  1.00e+00 1.00e+00h  1
  12  2.9418773e+01 1.22e-11 1.56e-04  -3.8 4.10e-02    -  1.00e+00 1.00e+00h  1
  13  2.9417618e+01 2.33e-04 9.59e-03  -5.7 7.48e-02    -  8.61e-01 9.12e-01h  1
  14  2.9416059e+01 2.06e-03 4.64e-03  -5.7 2.31e-01    -  9.53e-01 1.00e+00h  1
  15  2.9415996e+01 2.66e-06 4.67e-05  -5.7 4.01e-02    -  1.00e+00 1.00e+00h  1
  16  2.9416032e+01 2.17e-11 2.85e-05  -5.7 6.56e-03    -  1.00e+00 1.00e+00h  1
  17  2.9416032e+01 1.78e-12 1.88e-07  -5.7 8.32e-04    -  1.00e+00 1.00e+00h  1
  18  2.9415967e+01 1.78e-12 1.99e-03  -8.6 1.46e-02    -  9.59e-01 7.63e-01h  1
  19  2.9415959e+01 1.55e-06 1.38e-02  -8.6 2.47e-03    -  9.89e-01 5.84e-01h  1
iter    objective    inf_pr   inf_du lg(mu)  ||d||  lg(rg) alpha_du alpha_pr  ls
  20  2.9415958e+01 7.72e-12 4.51e-03  -8.6 1.24e-04    -  1.00e+00 9.10e-01f  1
  21  2.9415958e+01 3.90e-08 6.91e-03  -8.6 5.45e-05    -  1.00e+00 8.19e-01f  1
  22  2.9415958e+01 9.88e-12 5.17e-09  -8.6 7.80e-05    -  1.00e+00 1.00e+00f  1

Number of Iterations....: 22

                                   (scaled)                 (unscaled)
Objective...............:   2.9415958315266298e+01    2.9415958315266298e+01
Dual infeasibility......:   5.1709991732130597e-09    5.1709991732130597e-09
Constraint violation....:   1.7198048540834066e-14    9.8783646193534302e-12
Complementarity.........:   3.7703518428314010e-09    3.7703518428314010e-09
Overall NLP error.......:   5.1709991732130597e-09    5.1709991732130597e-09


Number of objective function evaluations             = 23
Number of objective gradient evaluations             = 23
Number of equality constraint evaluations            = 23
Number of inequality constraint evaluations          = 23
Number of equality constraint Jacobian evaluations   = 23
Number of inequality constraint Jacobian evaluations = 23
Number of Lagrangian Hessian evaluations             = 22
Total CPU secs in IPOPT (w/o function evaluations)   =      0.283
Total CPU secs in NLP function evaluations           =      0.212

EXIT: Optimal Solution Found.
Time to Solution........:1.2935888767242432
